 $SYSTEM
MWORDS=10000
 $END
 $BASIS GBASIS=N31 NGAUSS=6 NDFUNC=1 NPFUNC=1 $END
 $CONTRL SCFTYP=RHF  $END
 $DATA
ethanol_case4
C1
C 6
O 8
H 1
 $END
 $FMOXYZ
C    6.00000  -0.88710    0.17510   -0.01250
C    6.00000   0.46050   -0.51550   -0.04650
O    8.00000   1.44300    0.30730    0.56560
H    1.00000  -0.84750    1.12780   -0.55080
H    1.00000  -1.65880   -0.45330   -0.46580
H    1.00000  -1.17690    0.40370    1.01830
H    1.00000   0.76870   -0.72430   -1.07550
H    1.00000   0.41950   -1.46210    0.50020
H    1.00000   1.47860    1.14150    0.06710
 $END
 $FMO
NFRAG=3
ICHARG(1)=0,0,0
MULT(1)=1,1,1
INDAT(1)=1,2,3,1,1,1,2,2,3
 $END
 $FMOBND
 -1   2 C-6-31G**
 -3   2 O-6-31G**
 $END
 $FMOHYB
C-6-31G** 15 5
  1 0  -0.068254    0.305270    0.000003    0.000000    0.619132
        0.287030    0.000002    0.000000    0.307201   -0.022701
       -0.022701    0.042170    0.000000    0.000000    0.000000
  0 1  -0.068257    0.305303    0.583705    0.000000   -0.206360
        0.287057    0.289613    0.000000   -0.102393    0.034962
       -0.022700   -0.015495    0.000000   -0.023534    0.000000
  0 1  -0.068257    0.305306   -0.291851   -0.505502   -0.206358
        0.287061   -0.144805   -0.250811   -0.102392   -0.008284
        0.020546   -0.015495    0.028830    0.011767    0.020381
  0 1  -0.068257    0.305306   -0.291851    0.505502   -0.206358
        0.287061   -0.144805    0.250811   -0.102392   -0.008284
        0.020546   -0.015495   -0.028830    0.011767   -0.020381
  0 1   1.010732   -0.013164    0.000000    0.000000    0.000001
       -0.052063    0.000000    0.000000    0.000000   -0.001621
       -0.001621   -0.001620    0.000000    0.000000    0.000000
O-6-31G** 15 5
  0 1 -0.994508, -0.021320,  0.000000,  0.000000,  0.000795,
      -0.005081,  0.000000,  0.000000, -0.000185,  0.004312,
       0.004312,  0.004182,  0.000000,  0.000000,  0.000000
  0 1  0.106725, -0.241735,  0.221701, -0.383997,  0.168856,
      -0.191228,  0.121590, -0.210600,  0.108783,  0.001265,
      -0.005297, -0.005829,  0.006562, -0.007382,  0.012786
  0 1 -0.106725,  0.241735,  0.443401, -0.000000, -0.168857,
       0.191228,  0.243180, -0.000000, -0.108784,  0.008578,
      -0.004546,  0.005829,  0.000000, -0.014764,  0.000000
  0 1  0.106725, -0.241734,  0.221701,  0.383997,  0.168857,
      -0.191227,  0.121590,  0.210600,  0.108784,  0.001265,
      -0.005297, -0.005829, -0.006562, -0.007382, -0.012786
  1 0  0.112274, -0.274803, -0.000000,  0.000001, -0.587264,
      -0.257693, -0.000000,  0.000001, -0.403430, -0.016204,
      -0.016204,  0.013015, -0.000000,  0.000000, -0.000000
 $END
 $FMOPRP
MAXIT=100
 $END
