 $BASIS GBASIS=N31 NGAUSS=6 NDFUNC=1 NPFUNC=1 $END
 $CONTRL SCFTYP=RHF RUNTYP=ENERGY $END
 $DATA
1J6
C1
C 6
N 7
O 8
H 1
 $END
 $FMOXYZ
C        6.0   -2.64195   -2.71501    1.09534
C        6.0   -2.99696   -1.60837    0.11576
C        6.0   -2.46029   -0.27469    0.55788
N        7.0   -3.17659    0.58179    1.26887
C        6.0   -2.37584    1.67420    1.44365
C        6.0   -2.61804    2.88851    2.11082
N        7.0   -1.69456    3.89055    2.18055
C        6.0   -0.53575    3.62934    1.55523
C        6.0   -0.21886    2.46805    0.88190
C        6.0   -1.15006    1.46876    0.82856
N        7.0   -1.18339    0.22824    0.28365
C        6.0   -0.16224   -0.52773   -0.43831
C        6.0    1.07273   -0.86004    0.41373
C        6.0    2.11559   -1.65102   -0.37584
C        6.0    2.47026   -0.96557   -1.70552
C        6.0    1.20971   -0.76715   -2.56294
C        6.0    0.14098    0.04414   -1.83065
C        6.0    3.58409   -1.70963   -2.46775
C        6.0    3.21505   -3.07691   -2.86149
N        7.0    2.91048   -4.15438   -3.16474
C        6.0    1.09039    2.59252    0.35487
C        6.0    1.53821    3.84595    0.73876
N        7.0    0.54347    4.46127    1.46568
O        8.0   -4.42206   -1.48975    0.07466
H        1.0   -3.03434   -2.49908    2.09605
H        1.0   -1.55989   -2.85602    1.17634
H        1.0   -3.09358   -3.66176    0.77967
H        1.0   -2.67531   -1.86084   -0.89808
H        1.0   -3.56569    3.07799    2.60169
H        1.0   -0.60326   -1.50964   -0.64236
H        1.0    1.54478    0.03480    0.82146
H        1.0    0.76591   -1.44850    1.28824
H        1.0    1.72424   -2.65922   -0.55991
H        1.0    3.01647   -1.76855    0.23823
H        1.0    2.86948    0.03070   -1.46850
H        1.0    0.78212   -1.73864   -2.84027
H        1.0    1.46825   -0.25684   -3.49849
H        1.0   -0.77739    0.04787   -2.43222
H        1.0    0.45796    1.08750   -1.78310
H        1.0    4.48473   -1.74678   -1.84299
H        1.0    3.85154   -1.13724   -3.36421
H        1.0    1.67651    1.90384   -0.22992
H        1.0    2.47530    4.35533    0.55709
H        1.0    0.57735    5.38365    1.87501
H        1.0   -4.63955   -0.75166    0.68132
 $END
 $FMO
NFRAG=5
INDAT(1)=1,1,2,2,2,2,2,2,2,2,2,3,3,3,3,3,3,4,4,4,2,2,2,5,1,1,1,1,2,3,3,3,3,3,3,3,3,3,3,4,4,2,2,2,5
 $END
 $FMOBND
-24   2 6-31G**
 -2   3 6-31G**
-18  15 6-31G**
-11  12 6-31G**
 $END
 $FMOHYB
6-31G** 15 5
  1 0  -0.068254    0.305270    0.000003    0.000000    0.619132
        0.287030    0.000002    0.000000    0.307201   -0.022701
       -0.022701    0.042170    0.000000    0.000000    0.000000
  0 1  -0.068257    0.305303    0.583705    0.000000   -0.206360
        0.287057    0.289613    0.000000   -0.102393    0.034962
       -0.022700   -0.015495    0.000000   -0.023534    0.000000
  0 1  -0.068257    0.305306   -0.291851   -0.505502   -0.206358
        0.287061   -0.144805   -0.250811   -0.102392   -0.008284
        0.020546   -0.015495    0.028830    0.011767    0.020381
  0 1  -0.068257    0.305306   -0.291851    0.505502   -0.206358
        0.287061   -0.144805    0.250811   -0.102392   -0.008284
        0.020546   -0.015495   -0.028830    0.011767   -0.020381
  0 1   1.010732   -0.013164    0.000000    0.000000    0.000001
       -0.052063    0.000000    0.000000    0.000000   -0.001621
       -0.001621   -0.001620    0.000000    0.000000    0.000000
 $END
