 $BASIS GBASIS=N31 NGAUSS=6 NDFUNC=1 NPFUNC=1 $END
 $CONTRL SCFTYP=RHF RUNTYP=ENERGY $END
 $DATA
1J6
C1
C 6
N 7
O 8
H 1
 $END
 $FMOXYZ
C        6.0   -4.15388   -1.83838    0.36023
C        6.0   -2.68377   -1.56142    0.06163
C        6.0   -2.19384   -0.27510    0.66276
N        7.0   -2.96681    0.52367    1.38540
C        6.0   -2.20274    1.60457    1.71458
C        6.0   -2.50034    2.76250    2.45531
N        7.0   -1.59261    3.76432    2.65888
C        6.0   -0.39539    3.56310    2.08313
C        6.0   -0.02701    2.45817    1.34669
C        6.0   -0.94121    1.45796    1.17362
N        7.0   -0.90392    0.25600    0.54100
C        6.0    0.24758   -0.33287   -0.13777
C        6.0    0.33234    0.09159   -1.61586
C        6.0    1.22174   -0.82907   -2.46120
C        6.0    2.39122   -1.40217   -1.64478
C        6.0    1.86830   -2.25260   -0.46634
C        6.0    0.46984   -1.84400    0.01653
C        6.0    3.36008   -2.23050   -2.50756
C        6.0    4.11576   -1.39178   -3.44964
N        7.0    4.71171   -0.72466   -4.18836
C        6.0    1.30136    2.63013    0.88409
C        6.0    1.71329    3.85590    1.38211
N        7.0    0.67875    4.40657    2.10821
O        8.0   -2.52083   -1.46442   -1.35088
H        1.0   -4.79938   -1.04222   -0.02874
H        1.0   -4.47179   -2.76556   -0.12915
H        1.0   -4.33337   -1.93369    1.43607
H        1.0   -2.10313   -2.40723    0.43655
H        1.0   -3.47951    2.90941    2.89611
H        1.0    1.11182    0.08776    0.38411
H        1.0    0.72648    1.11390   -1.66998
H        1.0   -0.65965    0.14139   -2.07849
H        1.0    0.61468   -1.65372   -2.85716
H        1.0    1.58162   -0.26631   -3.33002
H        1.0    2.94826   -0.55341   -1.22150
H        1.0    1.84143   -3.31671   -0.73304
H        1.0    2.57952   -2.16687    0.36514
H        1.0   -0.24865   -2.40279   -0.58964
H        1.0    0.33235   -2.16172    1.05663
H        1.0    2.81015   -3.00344   -3.05742
H        1.0    4.07485   -2.75023   -1.85764
H        1.0    1.91552    1.99484    0.26521
H        1.0    2.64921    4.38880    1.27779
H        1.0    0.68312    5.29825    2.58166
H        1.0   -3.10316   -0.73795   -1.64058
 $END
 $FMO
NFRAG=5
INDAT(1)=1,1,2,2,2,2,2,2,2,2,2,3,3,3,3,3,3,4,4,4,2,2,2,5,1,1,1,1,2,3,3,3,3,3,3,3,3,3,3,4,4,2,2,2,5
 $END
 $FMOBND
-24   2 6-31G**
 -2   3 6-31G**
-18  15 6-31G**
-11  12 6-31G**
 $END
 $FMOHYB
6-31G** 15 5
  1 0  -0.068254    0.305270    0.000003    0.000000    0.619132
        0.287030    0.000002    0.000000    0.307201   -0.022701
       -0.022701    0.042170    0.000000    0.000000    0.000000
  0 1  -0.068257    0.305303    0.583705    0.000000   -0.206360
        0.287057    0.289613    0.000000   -0.102393    0.034962
       -0.022700   -0.015495    0.000000   -0.023534    0.000000
  0 1  -0.068257    0.305306   -0.291851   -0.505502   -0.206358
        0.287061   -0.144805   -0.250811   -0.102392   -0.008284
        0.020546   -0.015495    0.028830    0.011767    0.020381
  0 1  -0.068257    0.305306   -0.291851    0.505502   -0.206358
        0.287061   -0.144805    0.250811   -0.102392   -0.008284
        0.020546   -0.015495   -0.028830    0.011767   -0.020381
  0 1   1.010732   -0.013164    0.000000    0.000000    0.000001
       -0.052063    0.000000    0.000000    0.000000   -0.001621
       -0.001621   -0.001620    0.000000    0.000000    0.000000
 $END
