 $BASIS GBASIS=N31 NGAUSS=6 NDFUNC=1 NPFUNC=1 $END
 $CONTRL SCFTYP=RHF RUNTYP=ENERGY $END
 $DATA
1J6
C1
C 6
N 7
O 8
H 1
 $END
 $FMOXYZ
C        6.0   -2.62890   -2.57418    1.32376
C        6.0   -2.03958   -1.76533    0.17545
C        6.0   -1.88283   -0.31761    0.52906
N        7.0   -2.84030    0.38663    1.11873
C        6.0   -2.29236    1.60878    1.39256
C        6.0   -2.80687    2.74039    2.05136
N        7.0   -2.06809    3.87302    2.26464
C        6.0   -0.80232    3.81270    1.81653
C        6.0   -0.22996    2.74759    1.15826
C        6.0   -0.99507    1.64387    0.92139
N        7.0   -0.76814    0.47987    0.26700
C        6.0    0.35294    0.16783   -0.61500
C        6.0    1.39393   -0.74089    0.05202
C        6.0    2.60269   -0.97079   -0.85717
C        6.0    2.22770   -1.47357   -2.26490
C        6.0    1.19301   -0.52739   -2.90069
C        6.0   -0.04220   -0.31831   -2.02196
C        6.0    1.72883   -2.93407   -2.27664
C        6.0    2.79558   -3.88279   -1.92214
N        7.0    3.63813   -4.62621   -1.63384
C        6.0    1.13261    3.03026    0.89765
C        6.0    1.34132    4.31079    1.38471
N        7.0    0.16131    4.77456    1.93004
O        8.0   -2.93120   -1.81664   -0.93522
H        1.0   -2.75138   -3.62109    1.02520
H        1.0   -3.62523   -2.21251    1.60310
H        1.0   -1.98629   -2.53593    2.20930
H        1.0   -1.10040   -2.23136   -0.12160
H        1.0   -3.82205    2.75557    2.43070
H        1.0    0.84254    1.12457   -0.81281
H        1.0    0.95715   -1.70533    0.32873
H        1.0    1.73627   -0.28747    0.99080
H        1.0    3.30025   -1.66061   -0.36911
H        1.0    3.14189   -0.01972   -0.96160
H        1.0    3.13517   -1.42757   -2.88340
H        1.0    1.66709    0.44621   -3.08118
H        1.0    0.88491   -0.90626   -3.88243
H        1.0   -0.70297    0.41846   -2.49569
H        1.0   -0.60279   -1.25387   -1.99097
H        1.0    0.88282   -3.06868   -1.59494
H        1.0    1.36435   -3.18519   -3.28028
H        1.0    1.89777    2.41786    0.44521
H        1.0    2.22847    4.92998    1.40382
H        1.0    0.01413    5.66937    2.37392
H        1.0   -3.70192   -1.27493   -0.67470
 $END
 $FMO
NFRAG=5
INDAT(1)=1,1,2,2,2,2,2,2,2,2,2,3,3,3,3,3,3,4,4,4,2,2,2,5,1,1,1,1,2,3,3,3,3,3,3,3,3,3,3,4,4,2,2,2,5
 $END
 $FMOBND
-24   2 6-31G**
 -2   3 6-31G**
-18  15 6-31G**
-11  12 6-31G**
 $END
 $FMOHYB
6-31G** 15 5
  1 0  -0.068254    0.305270    0.000003    0.000000    0.619132
        0.287030    0.000002    0.000000    0.307201   -0.022701
       -0.022701    0.042170    0.000000    0.000000    0.000000
  0 1  -0.068257    0.305303    0.583705    0.000000   -0.206360
        0.287057    0.289613    0.000000   -0.102393    0.034962
       -0.022700   -0.015495    0.000000   -0.023534    0.000000
  0 1  -0.068257    0.305306   -0.291851   -0.505502   -0.206358
        0.287061   -0.144805   -0.250811   -0.102392   -0.008284
        0.020546   -0.015495    0.028830    0.011767    0.020381
  0 1  -0.068257    0.305306   -0.291851    0.505502   -0.206358
        0.287061   -0.144805    0.250811   -0.102392   -0.008284
        0.020546   -0.015495   -0.028830    0.011767   -0.020381
  0 1   1.010732   -0.013164    0.000000    0.000000    0.000001
       -0.052063    0.000000    0.000000    0.000000   -0.001621
       -0.001621   -0.001620    0.000000    0.000000    0.000000
 $END
