 $SYSTEM
MWORDS=10000
 $END
 $BASIS GBASIS=N31 NGAUSS=6 NDFUNC=1 NPFUNC=1 $END
 $CONTRL SCFTYP=RHF  $END
 $DATA
benzo_esterlike_swapped
C1
C 6
O 8
H 1
 $END
 $FMOXYZ
C    6.00000   3.43180   -0.11200   -0.02080
C    6.00000   2.00630   -0.08250   -0.48690
O    8.00000   1.66720   -0.10830   -1.66200
O    8.00000   1.17650   -0.02670    0.62780
C    6.00000  -0.19350    0.01670    0.34760
C    6.00000  -0.98040   -1.04230    0.79630
C    6.00000  -2.35800   -1.00700    0.58310
C    6.00000  -2.93710    0.08840   -0.06150
C    6.00000  -2.14150    1.15350   -0.48980
C    6.00000  -0.76330    1.12470   -0.27850
H    1.00000   4.09590   -0.14890   -0.88910
H    1.00000   3.65440    0.79380    0.54880
H    1.00000   3.60430   -1.00300    0.58800
H    1.00000  -0.52790   -1.88810    1.30420
H    1.00000  -2.98170   -1.83100    0.91940
H    1.00000  -4.01100    0.11320   -0.22920
H    1.00000  -2.59620    2.00510   -0.98900
H    1.00000  -0.14580    1.95430   -0.60840
 $END
 $FMO
NFRAG=2
ICHARG(1)=0,0
MULT(1)=1,1
INDAT(1)=1,1,1,1,2,2,2,2,2,2,1,1,1,2,2,2,2,2
 $END
 $FMOBND
 -5   4 C-6-31G**
 $END
 $FMOHYB
C-6-31G** 15 5
  1 0  -0.068254    0.305270    0.000003    0.000000    0.619132
        0.287030    0.000002    0.000000    0.307201   -0.022701
       -0.022701    0.042170    0.000000    0.000000    0.000000
  0 1  -0.068257    0.305303    0.583705    0.000000   -0.206360
        0.287057    0.289613    0.000000   -0.102393    0.034962
       -0.022700   -0.015495    0.000000   -0.023534    0.000000
  0 1  -0.068257    0.305306   -0.291851   -0.505502   -0.206358
        0.287061   -0.144805   -0.250811   -0.102392   -0.008284
        0.020546   -0.015495    0.028830    0.011767    0.020381
  0 1  -0.068257    0.305306   -0.291851    0.505502   -0.206358
        0.287061   -0.144805    0.250811   -0.102392   -0.008284
        0.020546   -0.015495   -0.028830    0.011767   -0.020381
  0 1   1.010732   -0.013164    0.000000    0.000000    0.000001
       -0.052063    0.000000    0.000000    0.000000   -0.001621
       -0.001621   -0.001620    0.000000    0.000000    0.000000
 $END
 $FMOPRP
MAXIT=100
 $END
