 $SYSTEM
MWORDS=10000
 $END
 $BASIS GBASIS=N31 NGAUSS=6 NDFUNC=1 NPFUNC=1 $END
 $CONTRL SCFTYP=RHF  $END
 $DATA
benzo_esterlike
C1
C 6
O 8
H 1
 $END
 $FMOXYZ
C    6.00000   3.43179   -0.11198   -0.02076
C    6.00000   2.00625   -0.08247   -0.48692
O    8.00000   1.66722   -0.10827   -1.66196
O    8.00000   1.17649   -0.02669    0.62775
C    6.00000  -0.19354    0.01674    0.34761
C    6.00000  -0.98043   -1.04226    0.79630
C    6.00000  -2.35799   -1.00698    0.58306
C    6.00000  -2.93706    0.08838   -0.06152
C    6.00000  -2.14146    1.15352   -0.48978
C    6.00000  -0.76331    1.12473   -0.27850
H    1.00000   4.09587   -0.14894   -0.88910
H    1.00000   3.65443    0.79380    0.54877
H    1.00000   3.60430   -1.00301    0.58803
H    1.00000  -0.52790   -1.88814    1.30423
H    1.00000  -2.98170   -1.83101    0.91943
H    1.00000  -4.01099    0.11318   -0.22922
H    1.00000  -2.59622    2.00514   -0.98899
H    1.00000  -0.14576    1.95426   -0.60844
 $END
 $FMO
NFRAG=2
ICHARG(1)=0,0
MULT(1)=1,1
INDAT(1)=1,1,1,1,2,2,2,2,2,2,1,1,1,2,2,2,2,2
 $END
 $FMOBND
 -4   5 O-6-31G**
 $END
 $FMOHYB
O-6-31G** 15 5
  0 1 -0.994508, -0.021320,  0.000000,  0.000000,  0.000795,
      -0.005081,  0.000000,  0.000000, -0.000185,  0.004312,
       0.004312,  0.004182,  0.000000,  0.000000,  0.000000
  0 1  0.106725, -0.241735,  0.221701, -0.383997,  0.168856,
      -0.191228,  0.121590, -0.210600,  0.108783,  0.001265,
      -0.005297, -0.005829,  0.006562, -0.007382,  0.012786
  0 1 -0.106725,  0.241735,  0.443401, -0.000000, -0.168857,
       0.191228,  0.243180, -0.000000, -0.108784,  0.008578,
      -0.004546,  0.005829,  0.000000, -0.014764,  0.000000
  0 1  0.106725, -0.241734,  0.221701,  0.383997,  0.168857,
      -0.191227,  0.121590,  0.210600,  0.108784,  0.001265,
      -0.005297, -0.005829, -0.006562, -0.007382, -0.012786
  1 0  0.112274, -0.274803, -0.000000,  0.000001, -0.587264,
      -0.257693, -0.000000,  0.000001, -0.403430, -0.016204,
      -0.016204,  0.013015, -0.000000,  0.000000, -0.000000
 $END
 $FMOPRP
MAXIT=100
 $END
