 $SYSTEM
MWORDS=10000
 $END
 $BASIS GBASIS=N31 NGAUSS=6 NDFUNC=1 NPFUNC=1 $END
 $CONTRL SCFTYP=UHF RUNTYP=ENERGY  $END
 $DATA
cyclosporin
C1
C 6
O 8
N 7
H 1
 $END
 $FMOXYZ
C    6.00000  -1.25418   -6.26175   -2.91098
C    6.00000  -0.93897   -6.70787   -1.48880
C    6.00000  -0.39995   -5.58750   -0.57028
C    6.00000   0.71041   -4.74532   -1.24854
O    8.00000   0.47382   -3.57663   -1.58587
N    7.00000   1.94333   -5.33849   -1.52069
C    6.00000   2.83789   -4.62488   -2.43899
C    6.00000   3.78689   -3.47812   -2.01912
O    8.00000   4.16360   -2.70016   -2.91336
N    7.00000   4.38910   -3.43681   -0.76855
C    6.00000   5.49687   -2.47273   -0.54748
C    6.00000   5.30065   -1.61337    0.73394
O    8.00000   4.27780   -1.64375    1.41610
N    7.00000   6.35205   -0.77236    1.04385
C    6.00000   6.37152    0.01601    2.27147
C    6.00000   6.79443    1.49989    2.04552
O    8.00000   7.43185    2.09700    2.92752
N    7.00000   6.29489    2.20124    0.94719
C    6.00000   6.82973    3.56017    0.68102
C    6.00000   5.77156    4.66824    0.45498
O    8.00000   5.90487    5.58825   -0.34181
N    7.00000   4.71675    4.60487    1.34803
C    6.00000   3.70891    5.65958    1.37639
C    6.00000   2.74466    5.52196    0.18176
O    8.00000   2.25393    6.48486   -0.39996
N    7.00000   2.32617    4.22645   -0.06808
C    6.00000   1.20989    3.94868   -0.96698
C    6.00000  -0.04712    4.00484   -0.08020
O    8.00000  -0.16166    3.17664    0.83482
N    7.00000  -0.97413    5.04345   -0.22896
C    6.00000  -2.02123    5.11637    0.81959
C    6.00000  -3.16190    4.04100    0.74284
O    8.00000  -3.62077    3.61133    1.81483
N    7.00000  -3.79973    3.72414   -0.45691
C    6.00000  -4.96496    2.80711   -0.40206
C    6.00000  -4.59275    1.36008   -0.86980
O    8.00000  -3.71034    1.16851   -1.71271
N    7.00000  -5.37196    0.30005   -0.38950
C    6.00000  -5.18502   -1.07583   -0.96155
C    6.00000  -4.84418   -2.11232    0.18933
O    8.00000  -5.10899   -1.83998    1.36743
N    7.00000  -4.19704   -3.32177   -0.09445
C    6.00000  -3.59477   -4.07256    1.05445
C    6.00000  -2.45416   -5.09482    0.74319
O    8.00000  -2.33072   -6.16293    1.35212
N    7.00000  -1.49211   -4.69516   -0.16067
C    6.00000  -4.61389   -4.72554    2.06459
C    6.00000  -5.42833   -5.95716    1.55970
C    6.00000  -6.04818   -6.74805    2.73275
C    6.00000  -6.52987   -5.62546    0.53457
C    6.00000  -7.62355   -4.72299    1.03894
C    6.00000  -8.91745   -5.07458    1.10492
C    6.00000 -10.00261   -4.16686    1.58768
O    8.00000  -3.87251   -5.09751    3.25341
C    6.00000  -4.00018   -3.81973   -1.44252
C    6.00000  -6.37983   -1.31713   -1.93896
C    6.00000  -5.91571   -1.49455   -3.39246
C    6.00000  -7.36744   -2.39530   -1.52064
C    6.00000  -6.42230    0.48470    0.61258
C    6.00000  -6.19144    3.33234   -1.20080
C    6.00000  -7.19141    4.14140   -0.34589
C    6.00000  -6.61658    5.47676    0.12093
C    6.00000  -8.47737    4.38415   -1.14104
C    6.00000  -3.28918    4.07396   -1.77152
C    6.00000  -2.63369    6.52664    1.03902
C    6.00000  -3.29205    6.74739    2.42398
C    6.00000  -3.98510    8.11560    2.46272
C    6.00000  -2.28357    6.66987    3.57680
C    6.00000  -0.81578    6.14432   -1.17780
C    6.00000   1.34824    2.55371   -1.56991
C    6.00000   2.91511    5.60565    2.67741
C    6.00000   8.07549    3.62184   -0.22900
C    6.00000   8.07420    3.12355   -1.68762
C    6.00000   6.95146    3.68086   -2.55648
C    6.00000   8.17993    1.60309   -1.82953
C    6.00000   5.20038    1.70915    0.11086
C    6.00000   7.26027   -0.67109    3.34943
C    6.00000   6.62195   -1.96112    3.87602
C    6.00000   8.68512   -0.95645    2.85371
C    6.00000   6.84664   -3.23810   -0.54296
C    6.00000   7.93764   -2.62991   -1.45560
C    6.00000   7.56841   -2.69644   -2.93901
C    6.00000   9.26102   -3.36426   -1.22482
C    6.00000   4.05205   -4.32628    0.33063
C    6.00000   2.27494   -6.72624   -1.21966
H    1.00000  -1.70371   -7.08892   -3.47255
H    1.00000  -1.95726   -5.42252   -2.92520
H    1.00000  -0.34923   -5.96097   -3.44745
H    1.00000  -1.84612   -7.14646   -1.05737
H    1.00000  -0.21796   -7.53042   -1.53851
H    1.00000   0.00546   -6.02446    0.34900
H    1.00000   3.47302   -5.37332   -2.92484
H    1.00000   2.20337   -4.20889   -3.23444
H    1.00000   5.49855   -1.73876   -1.35907
H    1.00000   7.14426   -0.69224    0.42323
H    1.00000   5.35194    0.08061    2.67179
H    1.00000   7.24089    3.90278    1.64353
H    1.00000   4.70998    3.86531    2.04203
H    1.00000   4.21947    6.62615    1.28602
H    1.00000   2.57056    3.52061    0.61127
H    1.00000   1.21993    4.67578   -1.77386
H    1.00000  -1.48360    4.86022    1.73983
H    1.00000  -5.26875    2.71712    0.64450
H    1.00000  -4.26425   -1.04714   -1.56049
H    1.00000  -3.06401   -3.30004    1.63454
H    1.00000  -1.44638   -3.72612   -0.47085
H    1.00000  -5.31304   -3.96472    2.41613
H    1.00000  -4.73866   -6.65416    1.06470
H    1.00000  -5.27269   -7.20077    3.35995
H    1.00000  -6.66305   -6.10426    3.36516
H    1.00000  -6.67281   -7.56895    2.36341
H    1.00000  -6.08633   -5.17587   -0.35336
H    1.00000  -6.96687   -6.56807    0.18120
H    1.00000  -7.33025   -3.72352    1.35565
H    1.00000  -9.22446   -6.07446    0.80861
H    1.00000 -10.75903   -4.05180    0.80590
H    1.00000 -10.48384   -4.59360    2.47138
H    1.00000  -9.62700   -3.17074    1.84129
H    1.00000  -3.36948   -5.90294    3.01247
H    1.00000  -3.17738   -3.27584   -1.91407
H    1.00000  -4.90168   -3.68205   -2.03090
H    1.00000  -3.80622   -4.89511   -1.43438
H    1.00000  -6.97820   -0.39486   -1.97748
H    1.00000  -5.33696   -2.40583   -3.55376
H    1.00000  -6.77375   -1.52820   -4.07271
H    1.00000  -5.28966   -0.64986   -3.70135
H    1.00000  -8.19080   -2.46443   -2.24169
H    1.00000  -7.81042   -2.15345   -0.55063
H    1.00000  -6.91305   -3.38364   -1.45922
H    1.00000  -5.97445    0.85356    1.54309
H    1.00000  -7.15495    1.21078    0.24465
H    1.00000  -6.96406   -0.44240    0.80847
H    1.00000  -5.88963    3.94080   -2.06028
H    1.00000  -6.73211    2.47833   -1.62962
H    1.00000  -7.46128    3.55806    0.54295
H    1.00000  -6.29149    6.09300   -0.72410
H    1.00000  -7.36709    6.04431    0.68268
H    1.00000  -5.76164    5.32879    0.78609
H    1.00000  -8.94026    3.43326   -1.42983
H    1.00000  -9.20813    4.93773   -0.54144
H    1.00000  -8.27845    4.95925   -2.05227
H    1.00000  -3.85810    3.58947   -2.57120
H    1.00000  -3.37485    5.15515   -1.90296
H    1.00000  -2.25367    3.74578   -1.87568
H    1.00000  -3.38013    6.71769    0.25730
H    1.00000  -1.85139    7.28801    0.92647
H    1.00000  -4.05998    5.98559    2.59067
H    1.00000  -3.26301    8.93263    2.33420
H    1.00000  -4.49085    8.26096    3.42322
H    1.00000  -4.73915    8.19877    1.67223
H    1.00000  -1.78249    5.69673    3.62475
H    1.00000  -2.78870    6.81479    4.53844
H    1.00000  -1.51101    7.44510    3.48197
H    1.00000  -1.78644    6.55550   -1.45844
H    1.00000  -0.22033    6.93001   -0.71036
H    1.00000  -0.33346    5.81484   -2.09768
H    1.00000   2.25582    2.48636   -2.18341
H    1.00000   0.47947    2.32160   -2.19906
H    1.00000   1.41517    1.77953   -0.79421
H    1.00000   2.34482    4.67450    2.76820
H    1.00000   3.58290    5.66924    3.54247
H    1.00000   2.20116    6.43602    2.73345
H    1.00000   8.38341    4.67834   -0.26542
H    1.00000   8.89868    3.11326    0.29225
H    1.00000   9.00876    3.51534   -2.11633
H    1.00000   6.94343    4.77563   -2.52792
H    1.00000   7.09874    3.38820   -3.60214
H    1.00000   5.96823    3.31485   -2.24798
H    1.00000   8.69076    1.36018   -2.76968
H    1.00000   8.76119    1.15479   -1.01661
H    1.00000   7.20415    1.11742   -1.87608
H    1.00000   5.58016    0.99294   -0.61505
H    1.00000   4.44959    1.22060    0.73829
H    1.00000   4.71013    2.51607   -0.43129
H    1.00000   7.34321    0.00551    4.21222
H    1.00000   6.55045   -2.72775    3.10164
H    1.00000   7.21719   -2.37590    4.69607
H    1.00000   5.61662   -1.76577    4.26028
H    1.00000   8.69223   -1.70633    2.05969
H    1.00000   9.30353   -1.33552    3.67573
H    1.00000   9.16461   -0.05030    2.47505
H    1.00000   7.23407   -3.29109    0.47880
H    1.00000   6.69301   -4.27869   -0.85827
H    1.00000   8.09187   -1.57794   -1.19315
H    1.00000   6.75270   -2.00344   -3.17527
H    1.00000   7.25550   -3.70658   -3.22810
H    1.00000   8.42168   -2.41273   -3.56558
H    1.00000   9.55696   -3.32154   -0.17098
H    1.00000   9.18352   -4.41884   -1.51026
H    1.00000  10.06768   -2.91350   -1.81441
H    1.00000   4.28900   -5.34964    0.03896
H    1.00000   4.64692   -4.10467    1.22237
H    1.00000   2.99032   -4.22847    0.57371
H    1.00000   1.77490   -7.07280   -0.31519
H    1.00000   1.97218   -7.34104   -2.06963
H    1.00000   3.35215   -6.84138   -1.08834
 $END
 $FMO
NFRAG=20
ICHARG(1)=0,0,0,0,0,0,0,0,0,0,0,0,0,0,0,0,0,0,0,0
MULT(1)=1,1,2,2,1,1,1,1,1,1,1,1,1,1,1,1,1,1,1,1
INDAT(1)=1,1,2,2,2,2,2,2,2,2,2,2,2,2,2,2,2,2,2,2,2,2,2,2,2,2,2,2,2,2,2,2,2,2,2,2,2,2,2,2,2,2,2,2,2,2,3,3,3,3,3,4,4,5,6,7,7,7,8,9,9,9,9,10,11,11,11,11,12,13,14,15,15,15,15,16,17,17,17,18,18,18,18,19,20,1,1,1,1,1,2,2,2,2,2,2,2,2,2,2,2,2,2,2,2,2,3,3,3,3,3,3,3,3,4,4,4,4,5,6,6,6,7,7,7,7,7,7,7,8,8,8,9,9,9,9,9,9,9,9,9,10,10,10,11,11,11,11,11,11,11,11,11,12,12,12,13,13,13,14,14,14,15,15,15,15,15,15,15,15,15,16,16,16,17,17,17,17,17,17,17,18,18,18,18,18,18,18,18,18,19,19,19,20,20,20
 $END
 $FMOBND
-54  47 O-6-31G**
-51  52 C-6-31G**
-55  42 C-6-31G**
-59  38 C-6-31G**
-64  34 C-6-31G**
-69  30 C-6-31G**
-76  18 C-6-31G**
-84  10 C-6-31G**
-85   6 C-6-31G**
 -2   3 C-6-31G**
-47  43 C-6-31G**
-56  39 C-6-31G**
-60  35 C-6-31G**
-65  31 C-6-31G**
-70  27 C-6-31G**
-71  23 C-6-31G**
-72  19 C-6-31G**
-77  15 C-6-31G**
-80  11 C-6-31G**
 $END
 $FMOHYB
O-6-31G** 15 5
  0 1 -0.994508, -0.021320,  0.000000,  0.000000,  0.000795,
      -0.005081,  0.000000,  0.000000, -0.000185,  0.004312,
       0.004312,  0.004182,  0.000000,  0.000000,  0.000000
  0 1  0.106725, -0.241735,  0.221701, -0.383997,  0.168856,
      -0.191228,  0.121590, -0.210600,  0.108783,  0.001265,
      -0.005297, -0.005829,  0.006562, -0.007382,  0.012786
  0 1 -0.106725,  0.241735,  0.443401, -0.000000, -0.168857,
       0.191228,  0.243180, -0.000000, -0.108784,  0.008578,
      -0.004546,  0.005829,  0.000000, -0.014764,  0.000000
  0 1  0.106725, -0.241734,  0.221701,  0.383997,  0.168857,
      -0.191227,  0.121590,  0.210600,  0.108784,  0.001265,
      -0.005297, -0.005829, -0.006562, -0.007382, -0.012786
  1 0  0.112274, -0.274803, -0.000000,  0.000001, -0.587264,
      -0.257693, -0.000000,  0.000001, -0.403430, -0.016204,
      -0.016204,  0.013015, -0.000000,  0.000000, -0.000000
C-6-31G** 15 5
  1 0  -0.068254    0.305270    0.000003    0.000000    0.619132
        0.287030    0.000002    0.000000    0.307201   -0.022701
       -0.022701    0.042170    0.000000    0.000000    0.000000
  0 1  -0.068257    0.305303    0.583705    0.000000   -0.206360
        0.287057    0.289613    0.000000   -0.102393    0.034962
       -0.022700   -0.015495    0.000000   -0.023534    0.000000
  0 1  -0.068257    0.305306   -0.291851   -0.505502   -0.206358
        0.287061   -0.144805   -0.250811   -0.102392   -0.008284
        0.020546   -0.015495    0.028830    0.011767    0.020381
  0 1  -0.068257    0.305306   -0.291851    0.505502   -0.206358
        0.287061   -0.144805    0.250811   -0.102392   -0.008284
        0.020546   -0.015495   -0.028830    0.011767   -0.020381
  0 1   1.010732   -0.013164    0.000000    0.000000    0.000001
       -0.052063    0.000000    0.000000    0.000000   -0.001621
       -0.001621   -0.001620    0.000000    0.000000    0.000000
 $END
 $FMOPRP
MAXIT=100
MODORB=3
 $END
