 $SYSTEM
MWORDS=10000
 $END
 $BASIS GBASIS=N31 NGAUSS=6 NDFUNC=1 NPFUNC=1 $END
 $CONTRL SCFTYP=RHF  $END
 $DATA
mol0_smiles
C1
N 7
C 6
O 8
F 9
H 1
 $END
 $FMOXYZ
N    7.00000  -1.29258   -2.81192   -2.92507
C    6.00000  -0.81384   -2.70704   -1.87351
C    6.00000  -0.21126   -2.60750   -0.53512
C    6.00000  -0.01253   -1.13811   -0.06099
N    7.00000  -1.33529   -0.47303    0.01064
C    6.00000  -2.42776   -0.89275    0.71802
C    6.00000  -3.41982    0.05422    0.51684
C    6.00000  -4.72020    0.07020    1.15850
N    7.00000  -5.24886   -1.15904    1.43972
O    8.00000  -5.33753    1.08560    1.45643
C    6.00000  -2.82331    0.99759   -0.36833
N    7.00000  -3.37940    2.10916   -0.89862
C    6.00000  -4.68357    2.37164   -1.36258
C    6.00000  -5.14209    3.69116   -1.39195
C    6.00000  -6.43730    3.94441   -1.81831
N    7.00000  -7.29551    2.98812   -2.22256
C    6.00000  -6.83518    1.72187   -2.17662
F    9.00000  -7.66591    0.74835   -2.58130
C    6.00000  -5.56386    1.36709   -1.76042
N    7.00000  -1.54415    0.69703   -0.60916
C    6.00000   0.96419   -0.37941   -1.00278
C    6.00000   2.36665   -0.99962   -1.02891
N    7.00000   2.70197   -1.66878    0.23131
C    6.00000   4.12807   -2.00735    0.35970
C    6.00000   5.09721   -0.85289    0.49899
C    6.00000   5.75475   -0.32832   -0.62506
C    6.00000   6.65095    0.73618   -0.49556
C    6.00000   6.90611    1.28854    0.75921
C    6.00000   6.26307    0.76635    1.87587
O    8.00000   6.48312    1.27057    3.12400
C    6.00000   5.37007   -0.29452    1.75670
C    6.00000   2.13579   -0.99009    1.38790
C    6.00000   0.60746   -1.12866    1.37124
H    1.00000  -0.85394   -3.15137    0.16941
H    1.00000   0.73417   -3.15968   -0.53964
H    1.00000  -2.40338   -1.77787    1.33760
H    1.00000  -6.15737   -1.17977    1.88215
H    1.00000  -4.81574   -2.02463    1.16017
H    1.00000  -2.71053    2.80909   -1.20393
H    1.00000  -4.51222    4.51177   -1.06560
H    1.00000  -6.82798    4.95831   -1.84275
H    1.00000  -5.27756    0.32397   -1.78100
H    1.00000   1.06213    0.66036   -0.65744
H    1.00000   0.57603   -0.31861   -2.02719
H    1.00000   3.06969   -0.19743   -1.27732
H    1.00000   2.42194   -1.73527   -1.84063
H    1.00000   4.42558   -2.62236   -0.50059
H    1.00000   4.25744   -2.67730    1.22083
H    1.00000   5.57107   -0.74757   -1.61257
H    1.00000   7.15032    1.13334   -1.37598
H    1.00000   7.60483    2.11499    0.84461
H    1.00000   7.11892    2.00178    3.05430
H    1.00000   4.89108   -0.68424    2.65112
H    1.00000   2.49649   -1.43207    2.32501
H    1.00000   2.41727    0.07086    1.40516
H    1.00000   0.32092   -2.04546    1.90399
H    1.00000   0.20137   -0.29989    1.96716
 $END
 $FMO
NFRAG=4
ICHARG(1)=0,0,0,0
MULT(1)=1,1,1,1
INDAT(1)=1,1,1,1,2,2,2,2,2,2,2,3,3,3,3,3,3,3,3,2,1,1,1,1,4,4,4,4,4,4,4,1,1,1,1,2,2,2,3,3,3,3,1,1,1,1,1,1,4,4,4,4,4,1,1,1,1
 $END
 $FMOBND
-24  25 C-6-31G**
 -5   4 N-6-31G**
-12  11 N-6-31G**
 $END
 $FMOHYB
C-6-31G** 15 5
  1 0  -0.068254    0.305270    0.000003    0.000000    0.619132
        0.287030    0.000002    0.000000    0.307201   -0.022701
       -0.022701    0.042170    0.000000    0.000000    0.000000
  0 1  -0.068257    0.305303    0.583705    0.000000   -0.206360
        0.287057    0.289613    0.000000   -0.102393    0.034962
       -0.022700   -0.015495    0.000000   -0.023534    0.000000
  0 1  -0.068257    0.305306   -0.291851   -0.505502   -0.206358
        0.287061   -0.144805   -0.250811   -0.102392   -0.008284
        0.020546   -0.015495    0.028830    0.011767    0.020381
  0 1  -0.068257    0.305306   -0.291851    0.505502   -0.206358
        0.287061   -0.144805    0.250811   -0.102392   -0.008284
        0.020546   -0.015495   -0.028830    0.011767   -0.020381
  0 1   1.010732   -0.013164    0.000000    0.000000    0.000001
       -0.052063    0.000000    0.000000    0.000000   -0.001621
       -0.001621   -0.001620    0.000000    0.000000    0.000000
N-6-31G** 15 5
  0 1   0.994888    0.025251    0.000000    0.000000    0.000000
       -0.001484    0.000000    0.000000   -0.000000   -0.003500
       -0.003500   -0.003500    0.000000    0.000000    0.000000
  0 1   0.102466   -0.216162    0.209018   -0.362030    0.147798
       -0.214321    0.122083   -0.211455    0.086326    0.004366
       -0.009631    0.007865    0.013997   -0.005714    0.009897
  0 1  -0.102466    0.216162    0.418037   -0.000000   -0.147798
        0.214321    0.244167   -0.000000   -0.086326    0.016629
       -0.011364   -0.007865    0.000000   -0.011428    0.000000
  0 1   0.102466   -0.216162    0.209019    0.362030    0.147798
       -0.214321    0.122084    0.211455    0.086326    0.004366
       -0.009631    0.007865   -0.013997   -0.005714   -0.009897
  1 0  -0.102466    0.216161    0.000000    0.000000    0.443395
        0.214320    0.000000    0.000000    0.258979   -0.011364
       -0.011364    0.020128   -0.000000   -0.000000   -0.000000
 $END
 $FMOPRP
MAXIT=100
 $END
