 $SYSTEM
MWORDS=10000
 $END
 $BASIS GBASIS=N31 NGAUSS=6 NDFUNC=1 NPFUNC=1 $END
 $CONTRL SCFTYP=RHF  $END
 $DATA
pentane_tetra_case5
C1
C 6
H 1
 $END
 $FMOXYZ
C    6.00000   0.80580   -1.29630    0.16570
C    6.00000  -0.00000   -0.00000    0.00000
C    6.00000  -1.40150   -0.33300   -0.53110
C    6.00000   0.71730    0.92510   -0.99340
C    6.00000  -0.12170    0.70420    1.35890
H    1.00000   0.90990   -1.82270   -0.78980
H    1.00000   0.31770   -1.97860    0.87070
H    1.00000   1.81330   -1.09060    0.54440
H    1.00000  -2.00200    0.57450   -0.66010
H    1.00000  -1.93960   -0.99350    0.15810
H    1.00000  -1.34730   -0.83760   -1.50240
H    1.00000   0.81940    0.44890   -1.97510
H    1.00000   0.16470    1.86100   -1.13280
H    1.00000   1.72290    1.18100   -0.64100
H    1.00000  -0.63080    0.06710    2.09080
H    1.00000   0.86490    0.95520    1.76450
H    1.00000  -0.69320    1.63520    1.27260
 $END
 $FMO
NFRAG=5
ICHARG(1)=0,0,0,0,0
MULT(1)=1,1,1,1,1
INDAT(1)=1,2,3,4,5,1,1,1,3,3,3,4,4,4,5,5,5
 $END
 $FMOBND
 -1   2 C-6-31G**
 -3   2 C-6-31G**
 -4   2 C-6-31G**
 -5   2 C-6-31G**
 $END
 $FMOHYB
C-6-31G** 15 5
  1 0  -0.068254    0.305270    0.000003    0.000000    0.619132
        0.287030    0.000002    0.000000    0.307201   -0.022701
       -0.022701    0.042170    0.000000    0.000000    0.000000
  0 1  -0.068257    0.305303    0.583705    0.000000   -0.206360
        0.287057    0.289613    0.000000   -0.102393    0.034962
       -0.022700   -0.015495    0.000000   -0.023534    0.000000
  0 1  -0.068257    0.305306   -0.291851   -0.505502   -0.206358
        0.287061   -0.144805   -0.250811   -0.102392   -0.008284
        0.020546   -0.015495    0.028830    0.011767    0.020381
  0 1  -0.068257    0.305306   -0.291851    0.505502   -0.206358
        0.287061   -0.144805    0.250811   -0.102392   -0.008284
        0.020546   -0.015495   -0.028830    0.011767   -0.020381
  0 1   1.010732   -0.013164    0.000000    0.000000    0.000001
       -0.052063    0.000000    0.000000    0.000000   -0.001621
       -0.001621   -0.001620    0.000000    0.000000    0.000000
 $END
 $FMOPRP
MAXIT=100
 $END
