 $SYSTEM
MWORDS=10000
 $END
 $BASIS GBASIS=N31 NGAUSS=6 NDFUNC=1 NPFUNC=1 $END
 $CONTRL SCFTYP=RHF  $END
 $DATA
pentane_tetra_case1
C1
C 6
H 1
 $END
 $FMOXYZ
C    6.00000   0.80584   -1.29631    0.16570
C    6.00000  -0.00000   -0.00000    0.00000
C    6.00000  -1.40152   -0.33299   -0.53115
C    6.00000   0.71734    0.92509   -0.99342
C    6.00000  -0.12166    0.70421    1.35888
H    1.00000   0.90993   -1.82270   -0.78975
H    1.00000   0.31771   -1.97862    0.87067
H    1.00000   1.81335   -1.09058    0.54436
H    1.00000  -2.00202    0.57452   -0.66012
H    1.00000  -1.93956   -0.99351    0.15807
H    1.00000  -1.34733   -0.83759   -1.50235
H    1.00000   0.81943    0.44892   -1.97508
H    1.00000   0.16474    1.86104   -1.13284
H    1.00000   1.72285    1.18105   -0.64096
H    1.00000  -0.63076    0.06714    2.09083
H    1.00000   0.86489    0.95517    1.76452
H    1.00000  -0.69322    1.63516    1.27264
 $END
 $FMO
NFRAG=5
ICHARG(1)=0,0,0,0,0
MULT(1)=1,1,1,1,1
INDAT(1)=1,2,3,4,5,1,1,1,3,3,3,4,4,4,5,5,5
 $END
 $FMOBND
 -2   1 C-6-31G**
 -2   3 C-6-31G**
 -2   4 C-6-31G**
 -2   5 C-6-31G**
 $END
 $FMOHYB
C-6-31G** 15 5
  1 0  -0.068254    0.305270    0.000003    0.000000    0.619132
        0.287030    0.000002    0.000000    0.307201   -0.022701
       -0.022701    0.042170    0.000000    0.000000    0.000000
  0 1  -0.068257    0.305303    0.583705    0.000000   -0.206360
        0.287057    0.289613    0.000000   -0.102393    0.034962
       -0.022700   -0.015495    0.000000   -0.023534    0.000000
  0 1  -0.068257    0.305306   -0.291851   -0.505502   -0.206358
        0.287061   -0.144805   -0.250811   -0.102392   -0.008284
        0.020546   -0.015495    0.028830    0.011767    0.020381
  0 1  -0.068257    0.305306   -0.291851    0.505502   -0.206358
        0.287061   -0.144805    0.250811   -0.102392   -0.008284
        0.020546   -0.015495   -0.028830    0.011767   -0.020381
  0 1   1.010732   -0.013164    0.000000    0.000000    0.000001
       -0.052063    0.000000    0.000000    0.000000   -0.001621
       -0.001621   -0.001620    0.000000    0.000000    0.000000
 $END
 $FMOPRP
MAXIT=100
 $END
