 $SYSTEM
MWORDS=10000
 $END
 $BASIS GBASIS=N31 NGAUSS=6 NDFUNC=1 NPFUNC=1 $END
 $CONTRL SCFTYP=RHF  $END
 $DATA
propanol_case3
C1
C 6
H 1
 $END
 $FMOXYZ
C    6.00000  -0.88710    0.17510   -0.01250
C    6.00000   0.46050   -0.51550   -0.04650
C    6.00000   1.44300    0.30730    0.56560
H    1.00000  -0.84750    1.12780   -0.55080
H    1.00000  -1.65880   -0.45330   -0.46580
H    1.00000  -1.17690    0.40370    1.01830
H    1.00000   0.76870   -0.72430   -1.07550
H    1.00000   0.41950   -1.46210    0.50020
H    1.00000   1.50050    1.24090    0.04600
H    1.00000   2.39360   -0.18230    0.52550
H    1.00000   1.17520    0.48320    1.58650
 $END
 $FMO
NFRAG=3
ICHARG(1)=0,0,0
MULT(1)=1,1,1
INDAT(1)=1,2,3,1,1,1,2,2,3,3,3
 $END
 $FMOBND
 -2   1 C-6-31G**
 -3   2 C-6-31G**
 $END
 $FMOHYB
C-6-31G** 15 5
  1 0  -0.068254    0.305270    0.000003    0.000000    0.619132
        0.287030    0.000002    0.000000    0.307201   -0.022701
       -0.022701    0.042170    0.000000    0.000000    0.000000
  0 1  -0.068257    0.305303    0.583705    0.000000   -0.206360
        0.287057    0.289613    0.000000   -0.102393    0.034962
       -0.022700   -0.015495    0.000000   -0.023534    0.000000
  0 1  -0.068257    0.305306   -0.291851   -0.505502   -0.206358
        0.287061   -0.144805   -0.250811   -0.102392   -0.008284
        0.020546   -0.015495    0.028830    0.011767    0.020381
  0 1  -0.068257    0.305306   -0.291851    0.505502   -0.206358
        0.287061   -0.144805    0.250811   -0.102392   -0.008284
        0.020546   -0.015495   -0.028830    0.011767   -0.020381
  0 1   1.010732   -0.013164    0.000000    0.000000    0.000001
       -0.052063    0.000000    0.000000    0.000000   -0.001621
       -0.001621   -0.001620    0.000000    0.000000    0.000000
 $END
 $FMOPRP
MAXIT=100
 $END
