 $SYSTEM
MWORDS=10000
 $END
 $BASIS GBASIS=N31 NGAUSS=6 NDFUNC=1 NPFUNC=1 $END
 $CONTRL SCFTYP=UHF RUNTYP=ENERGY  $END
 $DATA
scaffold2_molecule4_swap
C1
N 7
C 6
O 8
F 9
 $END
 $FMOXYZ
N    7.00000  40.08240   18.54670  243.42800
C    6.00000  40.83410   19.37890  243.19700
C    6.00000  41.78960   20.46720  242.91370
C    6.00000  41.10490   21.81850  243.06610
N    7.00000  41.14040   22.18240  244.49440
C    6.00000  40.22090   21.92840  245.43300
C    6.00000  40.61270   22.43480  246.65980
C    6.00000  39.89160   22.36300  247.91120
N    7.00000  38.70180   21.57190  247.97420
O    8.00000  40.24170   22.95080  248.95040
C    6.00000  41.85880   23.03010  246.41370
N    7.00000  42.68190   23.67830  247.36050
C    6.00000  43.81690   24.41360  247.00340
C    6.00000  44.27340   24.36280  245.68590
C    6.00000  45.38690   25.04420  245.27930
N    7.00000  46.06190   25.77980  246.15670
C    6.00000  45.64550   25.84360  247.42000
F    9.00000  46.32420   26.58790  248.31380
C    6.00000  44.50800   25.16200  247.88770
N    7.00000  42.10010   22.83730  245.10780
C    6.00000  41.84720   22.85320  242.26980
C    6.00000  41.73350   22.56590  240.81120
N    7.00000  40.38540   22.41530  240.36980
C    6.00000  40.29090   21.38740  239.39500
C    6.00000  39.20580   21.50710  238.42350
C    6.00000  39.23260   22.22670  237.25020
C    6.00000  38.17700   22.29920  236.37090
C    6.00000  36.99550   21.61070  236.66240
C    6.00000  36.93590   20.87970  237.83110
C    6.00000  38.00710   20.83190  238.68060
C    6.00000  39.37820   22.46780  241.36760
C    6.00000  39.69010   21.64790  242.59180
 $END
 $FMO
NFRAG=4
ICHARG(1)=0,0,0,0
MULT(1)=1,2,1,2
INDAT(1)=1,1,1,1,2,2,2,2,2,2,2,3,3,3,3,3,3,3,3,2,1,1,1,4,4,4,4,4,4,4,1,1
 $END
 $FMOBND
-24  23 C-6-31G**
 -4   5 C-6-31G**
-11  12 C-6-31G**
 $END
 $FMOHYB
C-6-31G** 15 5
  1 0  -0.068254    0.305270    0.000003    0.000000    0.619132
        0.287030    0.000002    0.000000    0.307201   -0.022701
       -0.022701    0.042170    0.000000    0.000000    0.000000
  0 1  -0.068257    0.305303    0.583705    0.000000   -0.206360
        0.287057    0.289613    0.000000   -0.102393    0.034962
       -0.022700   -0.015495    0.000000   -0.023534    0.000000
  0 1  -0.068257    0.305306   -0.291851   -0.505502   -0.206358
        0.287061   -0.144805   -0.250811   -0.102392   -0.008284
        0.020546   -0.015495    0.028830    0.011767    0.020381
  0 1  -0.068257    0.305306   -0.291851    0.505502   -0.206358
        0.287061   -0.144805    0.250811   -0.102392   -0.008284
        0.020546   -0.015495   -0.028830    0.011767   -0.020381
  0 1   1.010732   -0.013164    0.000000    0.000000    0.000001
       -0.052063    0.000000    0.000000    0.000000   -0.001621
       -0.001621   -0.001620    0.000000    0.000000    0.000000
 $END
 $FMOPRP
MAXIT=100
MODORB=3
 $END
