 $SYSTEM
MWORDS=10000
 $END
 $BASIS GBASIS=N31 NGAUSS=6 NDFUNC=1 NPFUNC=1 $END
 $CONTRL SCFTYP=RHF  $END
 $DATA
scaffold2_molecule0_2fragments
C1
H 1
N 7
C 6
O 8
F 9
 $END
 $FMOXYZ
H    1.00000  38.66340   20.03500  236.39180
H    1.00000  43.22060   21.33510  242.91630
H    1.00000  38.83480   23.93060  239.35580
H    1.00000  39.30700   21.52020  243.16330
H    1.00000  39.34010   19.75230  242.85210
H    1.00000  43.31140   23.59560  244.43890
H    1.00000  41.46530   23.17450  242.68230
H    1.00000  42.55930   23.01770  241.31900
H    1.00000  45.28980   24.73470  243.55240
H    1.00000  39.39070   20.59730  245.40880
H    1.00000  41.76020   24.29310  247.72680
H    1.00000  38.27960   20.80890  247.01990
H    1.00000  40.62830   20.36010  237.88420
H    1.00000  37.89610   21.49130  248.58440
H    1.00000  41.19120   19.05650  244.72590
H    1.00000  42.62880   19.16880  243.55240
H    1.00000  43.67680   25.90500  248.01650
H    1.00000  38.97840   21.04740  240.83220
H    1.00000  41.28600   23.44670  239.48620
H    1.00000  41.74320   21.69180  239.35040
H    1.00000  40.53200   20.15400  240.78240
H    1.00000  42.40900   20.49150  241.57810
H    1.00000  36.40210   23.99260  236.97210
H    1.00000  36.78990   21.65320  236.39450
N    7.00000  40.60030   17.31930  242.25170
C    6.00000  41.02600   18.16960  242.88850
C    6.00000  41.55250   19.23250  243.71270
C    6.00000  41.24230   20.61750  243.38720
N    7.00000  41.17710   21.49340  244.51310
C    6.00000  40.19970   21.32650  245.45220
C    6.00000  40.41110   22.23670  246.46280
C    6.00000  39.67840   22.38730  247.65240
N    7.00000  38.48540   21.45930  247.76470
O    8.00000  39.75310   23.07120  248.62260
C    6.00000  41.55760   22.95500  246.09320
N    7.00000  42.16180   24.01450  246.84300
C    6.00000  43.32280   24.67960  246.35610
C    6.00000  43.81790   24.35130  245.03930
C    6.00000  44.92260   24.98940  244.54660
N    7.00000  45.56410   25.92690  245.26910
C    6.00000  45.11330   26.24160  246.49640
F    9.00000  45.79840   27.17780  247.16900
C    6.00000  44.01060   25.62120  247.01840
N    7.00000  41.94290   22.45670  244.93350
C    6.00000  39.86130   20.69890  242.70920
C    6.00000  39.98150   20.96950  241.25150
N    7.00000  40.67020   22.19990  241.00650
C    6.00000  40.96810   22.41180  239.61300
C    6.00000  39.85640   22.16530  238.71270
C    6.00000  39.81080   21.08100  237.89100
C    6.00000  38.69900   20.90140  237.05230
C    6.00000  37.65120   21.79800  237.04660
C    6.00000  37.72870   22.87720  237.88800
O    8.00000  36.64710   23.79490  237.87900
C    6.00000  38.80320   23.06020  238.70050
C    6.00000  41.77040   22.51000  241.87390
C    6.00000  42.26930   21.18770  242.40510
 $END
 $FMO
NFRAG=2
ICHARG(1)=0,0
MULT(1)=1,1
INDAT(1)=1,1,1,1,1,2,1,1,2,1,2,1,1,1,1,1,2,1,1,1,1,1,1,1,1,1,1,1,1,1,1,1,1,1,1,2,2,2,2,2,2,2,2,1,1,1,1,1,1,1,1,1,1,1,1,1,1
 $END
 $FMOBND
-36  35 N-6-31G**
 $END
 $FMOHYB
N-6-31G** 15 5
  0 1  0.994888,  0.025251,  0.000000,  0.000000,  0.000000,
      -0.001484,  0.000000,  0.000000, -0.000000, -0.003500,
      -0.003500, -0.003500,  0.000000,  0.000000,  0.000000
  0 1  0.102466, -0.216162,  0.209018, -0.362030,  0.147798,
      -0.214321,  0.122083, -0.211455,  0.086326,  0.004366,
      -0.009631,  0.007865,  0.013997, -0.005714,  0.009897
  0 1 -0.102466,  0.216162,  0.418037, -0.000000, -0.147798,
       0.214321,  0.244167, -0.000000, -0.086326,  0.016629,
      -0.011364, -0.007865,  0.000000, -0.011428,  0.000000
  0 1  0.102466, -0.216162,  0.209019,  0.362030,  0.147798,
      -0.214321,  0.122084,  0.211455,  0.086326,  0.004366,
      -0.009631,  0.007865, -0.013997, -0.005714, -0.009897
  1 0 -0.102466,  0.216161,  0.000000,  0.000000,  0.443395,
       0.214320,  0.000000,  0.000000,  0.258979, -0.011364,
      -0.011364,  0.020128, -0.000000, -0.000000, -0.000000
 $END
 $FMOPRP
MAXIT=100
 $END
