 $SYSTEM
MWORDS=10000
 $END
 $BASIS GBASIS=N31 NGAUSS=6 NDFUNC=1 NPFUNC=1 $END
 $CONTRL SCFTYP=UHF RUNTYP=ENERGY  $END
 $DATA
scaffold2_molecule4
C1
N 7
C 6
O 8
F 9
 $END
 $FMOXYZ
N    7.00000  40.08240   18.54670  243.42800
C    6.00000  40.83410   19.37890  243.19700
C    6.00000  41.78960   20.46720  242.91370
C    6.00000  41.10490   21.81850  243.06610
N    7.00000  41.14040   22.18240  244.49440
C    6.00000  40.22090   21.92840  245.43300
C    6.00000  40.61270   22.43480  246.65980
C    6.00000  39.89160   22.36300  247.91120
N    7.00000  38.70180   21.57190  247.97420
O    8.00000  40.24170   22.95080  248.95040
C    6.00000  41.85880   23.03010  246.41370
N    7.00000  42.68190   23.67830  247.36050
C    6.00000  43.81690   24.41360  247.00340
C    6.00000  44.27340   24.36280  245.68590
C    6.00000  45.38690   25.04420  245.27930
N    7.00000  46.06190   25.77980  246.15670
C    6.00000  45.64550   25.84360  247.42000
F    9.00000  46.32420   26.58790  248.31380
C    6.00000  44.50800   25.16200  247.88770
N    7.00000  42.10010   22.83730  245.10780
C    6.00000  41.84720   22.85320  242.26980
C    6.00000  41.73350   22.56590  240.81120
N    7.00000  40.38540   22.41530  240.36980
C    6.00000  40.29090   21.38740  239.39500
C    6.00000  39.20580   21.50710  238.42350
C    6.00000  39.23260   22.22670  237.25020
C    6.00000  38.17700   22.29920  236.37090
C    6.00000  36.99550   21.61070  236.66240
C    6.00000  36.93590   20.87970  237.83110
C    6.00000  38.00710   20.83190  238.68060
C    6.00000  39.37820   22.46780  241.36760
C    6.00000  39.69010   21.64790  242.59180
 $END
 $FMO
NFRAG=4
ICHARG(1)=0,0,0,0
MULT(1)=1,2,1,2
INDAT(1)=1,1,1,1,2,2,2,2,2,2,2,3,3,3,3,3,3,3,3,2,1,1,1,4,4,4,4,4,4,4,1,1
 $END
 $FMOBND
-23  24 N-6-31G**
 -5   4 N-6-31G**
-12  11 N-6-31G**
 $END
 $FMOHYB
N-6-31G** 15 5
  0 1  0.994888,  0.025251,  0.000000,  0.000000,  0.000000,
      -0.001484,  0.000000,  0.000000, -0.000000, -0.003500,
      -0.003500, -0.003500,  0.000000,  0.000000,  0.000000
  0 1  0.102466, -0.216162,  0.209018, -0.362030,  0.147798,
      -0.214321,  0.122083, -0.211455,  0.086326,  0.004366,
      -0.009631,  0.007865,  0.013997, -0.005714,  0.009897
  0 1 -0.102466,  0.216162,  0.418037, -0.000000, -0.147798,
       0.214321,  0.244167, -0.000000, -0.086326,  0.016629,
      -0.011364, -0.007865,  0.000000, -0.011428,  0.000000
 0 1   0.102466, -0.216162,  0.209019,  0.362030,  0.147798,
      -0.214321,  0.122084,  0.211455,  0.086326,  0.004366,
      -0.009631,  0.007865, -0.013997, -0.005714, -0.009897
 1 0  -0.102466,  0.216161,  0.000000,  0.000000,  0.443395,
       0.214320,  0.000000,  0.000000,  0.258979, -0.011364,
      -0.011364,  0.020128, -0.000000, -0.000000, -0.000000
 $END
 $FMOPRP
MAXIT=100
MODORB=3
 $END
