 $SYSTEM
MWORDS=10000
 $END
 $BASIS GBASIS=N31 NGAUSS=6 NDFUNC=1 NPFUNC=1 $END
 $CONTRL SCFTYP=UHF RUNTYP=ENERGY  $END
 $DATA
scaffold2_molecule0_newsplit
C1
N 7
C 6
O 8
F 9
 $END
 $FMOXYZ
N    7.00000  40.60030   17.31930  242.25170
C    6.00000  41.02600   18.16960  242.88850
C    6.00000  41.55250   19.23250  243.71270
C    6.00000  41.24230   20.61750  243.38720
N    7.00000  41.17710   21.49340  244.51310
C    6.00000  40.19970   21.32650  245.45220
C    6.00000  40.41110   22.23670  246.46280
C    6.00000  39.67840   22.38730  247.65240
N    7.00000  38.48540   21.45930  247.76470
O    8.00000  39.75310   23.07120  248.62260
C    6.00000  41.55760   22.95500  246.09320
N    7.00000  42.16180   24.01450  246.84300
C    6.00000  43.32280   24.67960  246.35610
C    6.00000  43.81790   24.35130  245.03930
C    6.00000  44.92260   24.98940  244.54660
N    7.00000  45.56410   25.92690  245.26910
C    6.00000  45.11330   26.24160  246.49640
F    9.00000  45.79840   27.17780  247.16900
C    6.00000  44.01060   25.62120  247.01840
N    7.00000  41.94290   22.45670  244.93350
C    6.00000  39.86130   20.69890  242.70920
C    6.00000  39.98150   20.96950  241.25150
N    7.00000  40.67020   22.19990  241.00650
C    6.00000  40.96810   22.41180  239.61300
C    6.00000  39.85640   22.16530  238.71270
C    6.00000  39.81080   21.08100  237.89100
C    6.00000  38.69900   20.90140  237.05230
C    6.00000  37.65120   21.79800  237.04660
C    6.00000  37.72870   22.87720  237.88800
O    8.00000  36.64710   23.79490  237.87900
C    6.00000  38.80320   23.06020  238.70050
C    6.00000  41.77040   22.51000  241.87390
C    6.00000  42.26930   21.18770  242.40510
 $END
 $FMO
NFRAG=9
ICHARG(1)=0,0,0,0,0,0,0,0,0
MULT(1)=1,1,1,1,2,1,1,1,2
INDAT(1)=1,1,1,2,3,3,3,4,4,4,3,3,5,5,5,5,5,6,5,3,2,2,2,7,8,8,8,8,8,9,8,2,2
 $END
 $FMOBND
-23  24 N-6-31G**
 -5   4 N-6-31G**
-12  13 N-6-31G**
 -4   3 C-6-31G**
 -7   8 C-6-31G**
-25  24 C-6-31G**
-17  18 C-6-31G**
-29  30 C-6-31G**
 $END
 $FMOHYB
N-6-31G** 15 5
  0 1  0.994888,  0.025251,  0.000000,  0.000000,  0.000000,
      -0.001484,  0.000000,  0.000000, -0.000000, -0.003500,
      -0.003500, -0.003500,  0.000000,  0.000000,  0.000000
  0 1  0.102466, -0.216162,  0.209018, -0.362030,  0.147798,
      -0.214321,  0.122083, -0.211455,  0.086326,  0.004366,
      -0.009631,  0.007865,  0.013997, -0.005714,  0.009897
  0 1 -0.102466,  0.216162,  0.418037, -0.000000, -0.147798,
       0.214321,  0.244167, -0.000000, -0.086326,  0.016629,
      -0.011364, -0.007865,  0.000000, -0.011428,  0.000000
  0 1  0.102466, -0.216162,  0.209019,  0.362030,  0.147798,
      -0.214321,  0.122084,  0.211455,  0.086326,  0.004366,
      -0.009631,  0.007865, -0.013997, -0.005714, -0.009897
  1 0 -0.102466,  0.216161,  0.000000,  0.000000,  0.443395,
       0.214320,  0.000000,  0.000000,  0.258979, -0.011364,
      -0.011364,  0.020128, -0.000000, -0.000000, -0.000000
C-6-31G** 15 5
  1 0  -0.068254    0.305270    0.000003    0.000000    0.619132
        0.287030    0.000002    0.000000    0.307201   -0.022701
       -0.022701    0.042170    0.000000    0.000000    0.000000
  0 1  -0.068257    0.305303    0.583705    0.000000   -0.206360
        0.287057    0.289613    0.000000   -0.102393    0.034962
       -0.022700   -0.015495    0.000000   -0.023534    0.000000
  0 1  -0.068257    0.305306   -0.291851   -0.505502   -0.206358
        0.287061   -0.144805   -0.250811   -0.102392   -0.008284
        0.020546   -0.015495    0.028830    0.011767    0.020381
  0 1  -0.068257    0.305306   -0.291851    0.505502   -0.206358
        0.287061   -0.144805    0.250811   -0.102392   -0.008284
        0.020546   -0.015495   -0.028830    0.011767   -0.020381
  0 1   1.010732   -0.013164    0.000000    0.000000    0.000001
       -0.052063    0.000000    0.000000    0.000000   -0.001621
       -0.001621   -0.001620    0.000000    0.000000    0.000000
 $END
 $FMOPRP
MAXIT=100
MODORB=3
 $END
