 $SYSTEM
MWORDS=10000
 $END
 $BASIS GBASIS=N31 NGAUSS=6 NDFUNC=1 NPFUNC=1 $END
 $CONTRL SCFTYP=UHF RUNTYP=ENERGY  $END
 $DATA
scaffold2_molecule11
C1
N 7
C 6
O 8
F 9
 $END
 $FMOXYZ
N    7.00000  37.20350   20.10620  243.78270
C    6.00000  38.47210   19.89200  243.52070
C    6.00000  39.87590   19.67450  243.21790
C    6.00000  40.67970   20.88430  243.15240
N    7.00000  40.85960   21.48750  244.50490
C    6.00000  39.88390   21.20060  245.40600
C    6.00000  40.26300   21.97960  246.56450
C    6.00000  39.33880   21.94580  247.68580
N    7.00000  38.19400   21.08200  247.63620
O    8.00000  39.49090   22.63630  248.70860
C    6.00000  41.40450   22.64750  246.28810
N    7.00000  42.20260   23.54070  247.00250
C    6.00000  43.36250   24.24490  246.73650
C    6.00000  44.13520   24.31970  245.53280
C    6.00000  45.32610   24.94430  245.41180
C    6.00000  45.86190   25.56760  246.49440
F    9.00000  47.13080   26.13620  246.34150
C    6.00000  45.26840   25.60180  247.68680
C    6.00000  44.01780   24.94000  247.80440
N    7.00000  41.69410   22.26160  244.95480
C    6.00000  40.03920   21.93340  242.26530
C    6.00000  40.94380   22.59430  241.28770
N    7.00000  41.87580   21.85450  240.57680
C    6.00000  41.66070   21.72800  239.13100
C    6.00000  43.03870   21.84370  238.55370
C    6.00000  44.06730   21.29480  239.31770
C    6.00000  45.34400   21.25430  238.83220
C    6.00000  45.58720   21.77570  237.54920
C    6.00000  44.59560   22.32640  236.79080
C    6.00000  43.28160   22.35090  237.32800
C    6.00000  42.25730   20.60940  241.18410
C    6.00000  42.04920   20.56770  242.63850
 $END
 $FMO
NFRAG=4
ICHARG(1)=0,0,0,0
MULT(1)=1,2,2,2
INDAT(1)=1,1,1,1,2,2,2,2,2,2,2,3,3,3,3,3,3,3,3,2,1,1,1,4,4,4,4,4,4,4,1,1
 $END
 $FMOBND
-23  24 N-6-31G**
 -5   4 N-6-31G**
-12  11 N-6-31G**
 $END
 $FMOHYB
N-6-31G** 15 5
  0 1  0.994888,  0.025251,  0.000000,  0.000000,  0.000000,
      -0.001484,  0.000000,  0.000000, -0.000000, -0.003500,
      -0.003500, -0.003500,  0.000000,  0.000000,  0.000000
  0 1  0.102466, -0.216162,  0.209018, -0.362030,  0.147798,
      -0.214321,  0.122083, -0.211455,  0.086326,  0.004366,
      -0.009631,  0.007865,  0.013997, -0.005714,  0.009897
  0 1 -0.102466,  0.216162,  0.418037, -0.000000, -0.147798,
       0.214321,  0.244167, -0.000000, -0.086326,  0.016629,
      -0.011364, -0.007865,  0.000000, -0.011428,  0.000000
 0 1   0.102466, -0.216162,  0.209019,  0.362030,  0.147798,
      -0.214321,  0.122084,  0.211455,  0.086326,  0.004366,
      -0.009631,  0.007865, -0.013997, -0.005714, -0.009897
 1 0  -0.102466,  0.216161,  0.000000,  0.000000,  0.443395,
       0.214320,  0.000000,  0.000000,  0.258979, -0.011364,
      -0.011364,  0.020128, -0.000000, -0.000000, -0.000000
 $END
 $FMOPRP
MAXIT=100
MODORB=3
 $END
