 $SYSTEM
MWORDS=10000
 $END
 $BASIS GBASIS=N31 NGAUSS=6 NDFUNC=1 NPFUNC=1 $END
 $CONTRL SCFTYP=RHF  $END
 $DATA
tripod_butane_testing
C1
C 6
H 1
 $END
 $FMOXYZ
C    6.00000  -0.85572   -1.07166   -0.47481
C    6.00000  -0.15625   -0.01649    0.37919
C    6.00000   1.34165   -0.30112    0.46416
C    6.00000  -0.40618    1.38120   -0.18292
H    1.00000  -1.93448   -0.88713   -0.51407
H    1.00000  -0.47430   -1.07035   -1.50163
H    1.00000  -0.70269   -2.07276   -0.05803
H    1.00000  -0.57382   -0.06054    1.39253
H    1.00000   1.81023   -0.26924   -0.52542
H    1.00000   1.52521   -1.29152    0.89397
H    1.00000   1.84203    0.43715    1.09969
H    1.00000  -0.00693    1.47982   -1.19817
H    1.00000  -1.47869    1.59980   -0.21812
H    1.00000   0.06992    2.14285    0.44362
 $END
 $FMO
NFRAG=4
ICHARG(1)=0,0,0,0
MULT(1)=1,1,1,1
INDAT(1)=1,2,3,4,1,1,1,2,3,3,3,4,4,4
 $END
 $FMOBND
 -1   2 C-6-31G**
 -3   2 C-6-31G**
 -4   2 C-6-31G**
 $END
 $FMOHYB
C-6-31G** 15 5
  1 0  -0.068254    0.305270    0.000003    0.000000    0.619132
        0.287030    0.000002    0.000000    0.307201   -0.022701
       -0.022701    0.042170    0.000000    0.000000    0.000000
  0 1  -0.068257    0.305303    0.583705    0.000000   -0.206360
        0.287057    0.289613    0.000000   -0.102393    0.034962
       -0.022700   -0.015495    0.000000   -0.023534    0.000000
  0 1  -0.068257    0.305306   -0.291851   -0.505502   -0.206358
        0.287061   -0.144805   -0.250811   -0.102392   -0.008284
        0.020546   -0.015495    0.028830    0.011767    0.020381
  0 1  -0.068257    0.305306   -0.291851    0.505502   -0.206358
        0.287061   -0.144805    0.250811   -0.102392   -0.008284
        0.020546   -0.015495   -0.028830    0.011767   -0.020381
  0 1   1.010732   -0.013164    0.000000    0.000000    0.000001
       -0.052063    0.000000    0.000000    0.000000   -0.001621
       -0.001621   -0.001620    0.000000    0.000000    0.000000
 $END
 $FMOPRP
MAXIT=100
 $END
