 $SYSTEM
MWORDS=10000
 $END
 $BASIS GBASIS=N31 NGAUSS=6 NDFUNC=1 NPFUNC=1 $END
 $CONTRL SCFTYP=RHF  $END
 $DATA
tripod_butane_case2
C1
C 6
H 1
 $END
 $FMOXYZ
C    6.00000  -0.85570   -1.07170   -0.47480
C    6.00000  -0.15630   -0.01650    0.37920
C    6.00000   1.34170   -0.30110    0.46420
C    6.00000  -0.40620    1.38120   -0.18290
H    1.00000  -1.93450   -0.88710   -0.51410
H    1.00000  -0.47430   -1.07030   -1.50160
H    1.00000  -0.70270   -2.07280   -0.05800
H    1.00000  -0.57380   -0.06050    1.39250
H    1.00000   1.81020   -0.26920   -0.52540
H    1.00000   1.52520   -1.29150    0.89400
H    1.00000   1.84200    0.43710    1.09970
H    1.00000  -0.00690    1.47980   -1.19820
H    1.00000  -1.47870    1.59980   -0.21810
H    1.00000   0.06990    2.14280    0.44360
 $END
 $FMO
NFRAG=4
ICHARG(1)=0,0,0,0
MULT(1)=1,1,1,1
INDAT(1)=1,2,3,4,1,1,1,2,3,3,3,4,4,4
 $END
 $FMOBND
 -2   1 C-6-31G**
 -3   2 C-6-31G**
 -4   2 C-6-31G**
 $END
 $FMOHYB
C-6-31G** 15 5
  1 0  -0.068254    0.305270    0.000003    0.000000    0.619132
        0.287030    0.000002    0.000000    0.307201   -0.022701
       -0.022701    0.042170    0.000000    0.000000    0.000000
  0 1  -0.068257    0.305303    0.583705    0.000000   -0.206360
        0.287057    0.289613    0.000000   -0.102393    0.034962
       -0.022700   -0.015495    0.000000   -0.023534    0.000000
  0 1  -0.068257    0.305306   -0.291851   -0.505502   -0.206358
        0.287061   -0.144805   -0.250811   -0.102392   -0.008284
        0.020546   -0.015495    0.028830    0.011767    0.020381
  0 1  -0.068257    0.305306   -0.291851    0.505502   -0.206358
        0.287061   -0.144805    0.250811   -0.102392   -0.008284
        0.020546   -0.015495   -0.028830    0.011767   -0.020381
  0 1   1.010732   -0.013164    0.000000    0.000000    0.000001
       -0.052063    0.000000    0.000000    0.000000   -0.001621
       -0.001621   -0.001620    0.000000    0.000000    0.000000
 $END
 $FMOPRP
MAXIT=100
 $END
