 $SYSTEM
MWORDS=10000
 $END
 $BASIS GBASIS=N31 NGAUSS=6 NDFUNC=1 NPFUNC=1 $END
 $CONTRL SCFTYP=RHF  $END
 $DATA
ethanol_case1
C1
C 6
O 8
H 1
 $END
 $FMOXYZ
C    6.00000  -0.88709    0.17506   -0.01253
C    6.00000   0.46049   -0.51552   -0.04654
O    8.00000   1.44297    0.30727    0.56557
H    1.00000  -0.84748    1.12777   -0.55082
H    1.00000  -1.65878   -0.45333   -0.46584
H    1.00000  -1.17694    0.40368    1.01831
H    1.00000   0.76871   -0.72433   -1.07546
H    1.00000   0.41949   -1.46207    0.50018
H    1.00000   1.47864    1.14147    0.06713
 $END
 $FMO
NFRAG=3
ICHARG(1)=0,0,0
MULT(1)=1,1,1
INDAT(1)=1,2,3,1,1,1,2,2,3
 $END
 $FMOBND
 -1   2 C-6-31G**
 -2   3 C-6-31G**
 $END
 $FMOHYB
C-6-31G** 15 5
  1 0  -0.068254    0.305270    0.000003    0.000000    0.619132
        0.287030    0.000002    0.000000    0.307201   -0.022701
       -0.022701    0.042170    0.000000    0.000000    0.000000
  0 1  -0.068257    0.305303    0.583705    0.000000   -0.206360
        0.287057    0.289613    0.000000   -0.102393    0.034962
       -0.022700   -0.015495    0.000000   -0.023534    0.000000
  0 1  -0.068257    0.305306   -0.291851   -0.505502   -0.206358
        0.287061   -0.144805   -0.250811   -0.102392   -0.008284
        0.020546   -0.015495    0.028830    0.011767    0.020381
  0 1  -0.068257    0.305306   -0.291851    0.505502   -0.206358
        0.287061   -0.144805    0.250811   -0.102392   -0.008284
        0.020546   -0.015495   -0.028830    0.011767   -0.020381
  0 1   1.010732   -0.013164    0.000000    0.000000    0.000001
       -0.052063    0.000000    0.000000    0.000000   -0.001621
       -0.001621   -0.001620    0.000000    0.000000    0.000000
 $END
 $FMOPRP
MAXIT=100
 $END
