 $BASIS GBASIS=N31 NGAUSS=6 NDFUNC=1 NPFUNC=1 $END
 $CONTRL SCFTYP=RHF RUNTYP=ENERGY $END
 $DATA
1J6
C1
C 6
N 7
O 8
H 1
 $END
 $FMOXYZ
C        6.0   -2.28849   -2.63474    0.54808
C        6.0   -2.58231   -1.41945   -0.31581
C        6.0   -2.08150   -0.15313    0.30894
N        7.0   -2.82095    0.45503    1.23050
C        6.0   -2.14562    1.58165    1.58311
C        6.0   -2.45694    2.59779    2.50394
N        7.0   -1.64093    3.67034    2.72426
C        6.0   -0.51591    3.67904    1.99105
C        6.0   -0.14064    2.72364    1.07070
C        6.0   -0.97059    1.65542    0.86290
N        7.0   -0.90460    0.55482    0.05273
C        6.0    0.20283    0.26222   -0.86527
C        6.0    1.46739   -0.22305   -0.12295
C        6.0    1.68778   -1.72993   -0.14701
C        6.0    1.64356   -2.32248   -1.56123
C        6.0    0.28875   -1.98766   -2.19469
C        6.0   -0.05448   -0.49451   -2.18613
C        6.0    2.81217   -1.88042   -2.46555
C        6.0    4.10809   -2.37490   -1.97692
N        7.0    5.13086   -2.75918   -1.58744
C        6.0    1.10996    3.09114    0.51195
C        6.0    1.45974    4.28362    1.12450
N        7.0    0.46684    4.62712    2.01603
O        8.0   -4.00907   -1.28960   -0.40137
H        1.0   -2.75240   -2.54139    1.53722
H        1.0   -2.71088   -3.53632    0.09099
H        1.0   -1.21685   -2.78746    0.68989
H        1.0   -2.25159   -1.56397   -1.33657
H        1.0   -3.37228    2.56809    3.08366
H        1.0    0.43228    1.26519   -1.24605
H        1.0    2.34087    0.25473   -0.58454
H        1.0    1.46877    0.10844    0.92231
H        1.0    0.92021   -2.20969    0.46955
H        1.0    2.64418   -1.96254    0.33550
H        1.0    1.69887   -3.41589   -1.46219
H        1.0    0.25628   -2.35534   -3.22789
H        1.0   -0.47340   -2.55766   -1.65970
H        1.0    0.58683   -0.03089   -2.95009
H        1.0   -1.07299   -0.32436   -2.55038
H        1.0    2.65315   -2.27400   -3.47719
H        1.0    2.85033   -0.79043   -2.56193
H        1.0    1.71782    2.59905   -0.23028
H        1.0    2.32812    4.91814    1.00551
H        1.0    0.44486    5.44450    2.60838
H        1.0   -4.25815   -0.72096    0.35717
 $END
 $FMO
NFRAG=5
INDAT(1)=1,1,2,2,2,2,2,2,2,2,2,3,3,3,3,3,3,4,4,4,2,2,2,5,1,1,1,1,2,3,3,3,3,3,3,3,3,3,3,4,4,2,2,2,5
 $END
 $FMOBND
-24   2 6-31G**
 -2   3 6-31G**
-18  15 6-31G**
-11  12 6-31G**
 $END
 $FMOHYB
6-31G** 15 5
  1 0  -0.068254    0.305270    0.000003    0.000000    0.619132
        0.287030    0.000002    0.000000    0.307201   -0.022701
       -0.022701    0.042170    0.000000    0.000000    0.000000
  0 1  -0.068257    0.305303    0.583705    0.000000   -0.206360
        0.287057    0.289613    0.000000   -0.102393    0.034962
       -0.022700   -0.015495    0.000000   -0.023534    0.000000
  0 1  -0.068257    0.305306   -0.291851   -0.505502   -0.206358
        0.287061   -0.144805   -0.250811   -0.102392   -0.008284
        0.020546   -0.015495    0.028830    0.011767    0.020381
  0 1  -0.068257    0.305306   -0.291851    0.505502   -0.206358
        0.287061   -0.144805    0.250811   -0.102392   -0.008284
        0.020546   -0.015495   -0.028830    0.011767   -0.020381
  0 1   1.010732   -0.013164    0.000000    0.000000    0.000001
       -0.052063    0.000000    0.000000    0.000000   -0.001621
       -0.001621   -0.001620    0.000000    0.000000    0.000000
 $END
