 $BASIS GBASIS=N31 NGAUSS=6 NDFUNC=1 NPFUNC=1 $END
 $CONTRL SCFTYP=RHF RUNTYP=ENERGY $END
 $DATA
1J6
C1
C 6
N 7
O 8
H 1
 $END
 $FMOXYZ
C        6.0   -2.84993   -1.48446   -1.56916
C        6.0   -3.04807   -1.28568   -0.08046
C        6.0   -2.43049   -0.05220    0.51522
N        7.0   -3.18702    0.78037    1.22152
C        6.0   -2.39597    1.83486    1.56110
C        6.0   -2.67463    3.01789    2.26864
N        7.0   -1.73546    3.98648    2.48879
C        6.0   -0.52767    3.72699    1.96088
C        6.0   -0.17736    2.59281    1.26109
C        6.0   -1.12337    1.62397    1.07417
N        7.0   -1.10418    0.39605    0.48133
C        6.0    0.09751   -0.27734   -0.00585
C        6.0    0.40942    0.05596   -1.47251
C        6.0    1.78037   -0.47951   -1.89318
C        6.0    1.93718   -1.98390   -1.60353
C        6.0    1.63817   -2.27667   -0.12253
C        6.0    0.24653   -1.77939    0.27626
C        6.0    3.34434   -2.49440   -1.96510
C        6.0    3.59078   -2.46094   -3.41422
N        7.0    3.78313   -2.42935   -4.55784
C        6.0    1.17027    2.70749    0.83713
C        6.0    1.61263    3.92628    1.32563
N        7.0    0.57679    4.52940    2.00704
O        8.0   -2.61841   -2.41385    0.66933
H        1.0   -3.54133   -2.25437   -1.93157
H        1.0   -3.04025   -0.56464   -2.13086
H        1.0   -1.85581   -1.85592   -1.81912
H        1.0   -4.13263   -1.21312    0.07766
H        1.0   -3.66332    3.21277    2.66761
H        1.0    0.90242    0.14890    0.60210
H        1.0   -0.35370   -0.35857   -2.13653
H        1.0    0.38679    1.14005   -1.63531
H        1.0    1.91995   -0.27981   -2.96187
H        1.0    2.56128    0.08106   -1.36345
H        1.0    1.19991   -2.52640   -2.21247
H        1.0    1.69732   -3.35589    0.06334
H        1.0    2.39460   -1.80218    0.51548
H        1.0    0.07412   -1.98556    1.33911
H        1.0   -0.47222   -2.36781   -0.29258
H        1.0    4.10664   -1.90107   -1.44620
H        1.0    3.45928   -3.52863   -1.61830
H        1.0    1.77624    2.03777    0.24738
H        1.0    2.57035    4.42268    1.24138
H        1.0    0.59887    5.43029    2.46230
H        1.0   -2.90306   -2.24044    1.58583
 $END
 $FMO
NFRAG=5
INDAT(1)=1,1,2,2,2,2,2,2,2,2,2,3,3,3,3,3,3,4,4,4,2,2,2,5,1,1,1,1,2,3,3,3,3,3,3,3,3,3,3,4,4,2,2,2,5
 $END
 $FMOBND
-24   2 6-31G**
 -2   3 6-31G**
-18  15 6-31G**
-11  12 6-31G**
 $END
 $FMOHYB
6-31G** 15 5
  1 0  -0.068254    0.305270    0.000003    0.000000    0.619132
        0.287030    0.000002    0.000000    0.307201   -0.022701
       -0.022701    0.042170    0.000000    0.000000    0.000000
  0 1  -0.068257    0.305303    0.583705    0.000000   -0.206360
        0.287057    0.289613    0.000000   -0.102393    0.034962
       -0.022700   -0.015495    0.000000   -0.023534    0.000000
  0 1  -0.068257    0.305306   -0.291851   -0.505502   -0.206358
        0.287061   -0.144805   -0.250811   -0.102392   -0.008284
        0.020546   -0.015495    0.028830    0.011767    0.020381
  0 1  -0.068257    0.305306   -0.291851    0.505502   -0.206358
        0.287061   -0.144805    0.250811   -0.102392   -0.008284
        0.020546   -0.015495   -0.028830    0.011767   -0.020381
  0 1   1.010732   -0.013164    0.000000    0.000000    0.000001
       -0.052063    0.000000    0.000000    0.000000   -0.001621
       -0.001621   -0.001620    0.000000    0.000000    0.000000
 $END
